(declare-fun temp270_1 () (_ BitVec 64))
(declare-fun var75937 () (_ BitVec 64))
(declare-fun ARGNAME_input_NAMEEND_DIM () (_ BitVec 64))
(declare-fun temp270_2 () (_ BitVec 64))
(declare-fun var141643 () (_ BitVec 64))
(declare-fun ARGNAME_offset_NAMEEND () (_ BitVec 64))
(declare-fun temp270_3 () (_ BitVec 64))
(declare-fun var71509 () (_ BitVec 64))
(declare-fun temp270_4 () (_ BitVec 64))
(declare-fun temp270_5 () (_ BitVec 64))
(declare-fun temp270_6 () (_ BitVec 64))
(declare-fun ARGNAME_input_NAMEEND_DIMSIZE
             ()
             (Array (_ BitVec 64) (_ BitVec 64)))
(declare-fun temp270_7 () (_ BitVec 64))
(declare-fun temp270_8 () (_ BitVec 64))
(declare-fun temp270_9 () (_ BitVec 64))
(declare-fun temp270_10 () (_ BitVec 64))
(declare-fun temp270_11 () (_ BitVec 64))
(declare-fun temp270_12 () (_ BitVec 64))
(declare-fun temp270_13 () (_ BitVec 64))
(declare-fun temp270_14 () (_ BitVec 64))
(declare-fun temp270_15 () (_ BitVec 64))
(declare-fun temp270_16 () (_ BitVec 64))
(declare-fun temp270_17 () (_ BitVec 64))
(declare-fun temp270_18 () (_ BitVec 64))
(declare-fun temp270_19 () (_ BitVec 64))
(declare-fun temp270_20 () (_ BitVec 64))
(declare-fun temp270_21 () (_ BitVec 64))
(declare-fun temp270_22 () (_ BitVec 64))
(declare-fun temp270_23 () (_ BitVec 64))
(declare-fun temp270_24 () (_ BitVec 64))
(declare-fun var75972 () (_ BitVec 64))
(declare-fun temp270_25 () (_ BitVec 64))
(declare-fun var2692541 () (_ BitVec 64))
(declare-fun var2692553 () (_ BitVec 64))
(assert (= temp270_1 #x0000000000000001))
(assert (= var75937 (bvadd ARGNAME_input_NAMEEND_DIM temp270_1)))
(assert (= temp270_2 #x0000000000000000))
(assert (= var141643
   (ite (bvslt ARGNAME_offset_NAMEEND temp270_2)
        #x0000000000000001
        #x0000000000000000)))
(assert (= temp270_3 #xffffffffffffffff))
(assert (= var71509 temp270_3))
(assert (= temp270_4 #x0000000000000000))
(assert (= temp270_5 temp270_4))
(assert (= temp270_6 (select ARGNAME_input_NAMEEND_DIMSIZE temp270_5)))
(assert (= temp270_7 #x0000000000000001))
(assert (= temp270_8 temp270_7))
(assert (= temp270_9 (select ARGNAME_input_NAMEEND_DIMSIZE temp270_8)))
(assert (= temp270_10 #x0000000000000002))
(assert (= temp270_11 temp270_10))
(assert (= temp270_12 (select ARGNAME_input_NAMEEND_DIMSIZE temp270_11)))
(assert (= temp270_13 #x0000000000000003))
(assert (= temp270_14 temp270_13))
(assert (= temp270_15 (select ARGNAME_input_NAMEEND_DIMSIZE temp270_14)))
(assert (= temp270_16 #x0000000000000004))
(assert (= temp270_17 temp270_16))
(assert (= temp270_18 (select ARGNAME_input_NAMEEND_DIMSIZE temp270_17)))
(assert (= temp270_19 #x0000000000000005))
(assert (= temp270_20 temp270_19))
(assert (= temp270_21 (select ARGNAME_input_NAMEEND_DIMSIZE temp270_20)))
(assert (= temp270_22 #x0000000000000000))
(assert (= temp270_23
   (ite (bvslt var71509 temp270_22)
        (bvadd ARGNAME_input_NAMEEND_DIM var71509)
        var71509)))
(assert (= temp270_24 (select ARGNAME_input_NAMEEND_DIMSIZE temp270_23)))
(assert (= var75972 temp270_24))
(assert (bvslt (ite (bvslt var71509 temp270_22)
            (bvadd ARGNAME_input_NAMEEND_DIM var71509)
            var71509)
       ARGNAME_input_NAMEEND_DIM))
(assert (= temp270_25 #x0000000000000001))
(assert (= var2692541 temp270_25))
(assert (= var2692553 var2692541))
(model-add temp270_1 () (_ BitVec 64) #x0000000000000001)
(model-add var75937
           ()
           (_ BitVec 64)
           (bvadd #x0000000000000001 ARGNAME_input_NAMEEND_DIM))
(model-add temp270_2 () (_ BitVec 64) #x0000000000000000)
(model-add var141643
           ()
           (_ BitVec 64)
           (ite (bvsle #x0000000000000000 ARGNAME_offset_NAMEEND)
                #x0000000000000000
                #x0000000000000001))
(model-add temp270_3 () (_ BitVec 64) #xffffffffffffffff)
(model-add var71509 () (_ BitVec 64) #xffffffffffffffff)
(model-add temp270_4 () (_ BitVec 64) #x0000000000000000)
(model-add temp270_5 () (_ BitVec 64) #x0000000000000000)
(model-add temp270_6
           ()
           (_ BitVec 64)
           (select ARGNAME_input_NAMEEND_DIMSIZE #x0000000000000000))
(model-add temp270_7 () (_ BitVec 64) #x0000000000000001)
(model-add temp270_8 () (_ BitVec 64) #x0000000000000001)
(model-add temp270_9
           ()
           (_ BitVec 64)
           (select ARGNAME_input_NAMEEND_DIMSIZE #x0000000000000001))
(model-add temp270_10 () (_ BitVec 64) #x0000000000000002)
(model-add temp270_11 () (_ BitVec 64) #x0000000000000002)
(model-add temp270_12
           ()
           (_ BitVec 64)
           (select ARGNAME_input_NAMEEND_DIMSIZE #x0000000000000002))
(model-add temp270_13 () (_ BitVec 64) #x0000000000000003)
(model-add temp270_14 () (_ BitVec 64) #x0000000000000003)
(model-add temp270_15
           ()
           (_ BitVec 64)
           (select ARGNAME_input_NAMEEND_DIMSIZE #x0000000000000003))
(model-add temp270_16 () (_ BitVec 64) #x0000000000000004)
(model-add temp270_17 () (_ BitVec 64) #x0000000000000004)
(model-add temp270_18
           ()
           (_ BitVec 64)
           (select ARGNAME_input_NAMEEND_DIMSIZE #x0000000000000004))
(model-add temp270_19 () (_ BitVec 64) #x0000000000000005)
(model-add temp270_20 () (_ BitVec 64) #x0000000000000005)
(model-add temp270_21
           ()
           (_ BitVec 64)
           (select ARGNAME_input_NAMEEND_DIMSIZE #x0000000000000005))
(model-add temp270_22 () (_ BitVec 64) #x0000000000000000)
(model-add temp270_23
           ()
           (_ BitVec 64)
           (bvadd #xffffffffffffffff ARGNAME_input_NAMEEND_DIM))
(model-add temp270_24
           ()
           (_ BitVec 64)
           (select ARGNAME_input_NAMEEND_DIMSIZE
                   (bvadd #xffffffffffffffff ARGNAME_input_NAMEEND_DIM)))
(model-add var75972
           ()
           (_ BitVec 64)
           (select ARGNAME_input_NAMEEND_DIMSIZE
                   (bvadd #xffffffffffffffff ARGNAME_input_NAMEEND_DIM)))
(model-add temp270_25 () (_ BitVec 64) #x0000000000000001)
(model-add var2692541 () (_ BitVec 64) #x0000000000000001)
(model-add var2692553 () (_ BitVec 64) #x0000000000000001)






